1 2 3 4 0
-1 -2 0
-1 -3 0
-2 -3 0
-1 -4 0
-2 -4 0
-3 -4 0
5 6 7 8 0
-5 -6 0
-5 -7 0
-6 -7 0
-5 -8 0
-6 -8 0
-7 -8 0
9 10 11 12 0
-9 -10 0
-9 -11 0
-10 -11 0
-9 -12 0
-10 -12 0
-11 -12 0
13 14 15 16 0
-13 -14 0
-13 -15 0
-14 -15 0
-13 -16 0
-14 -16 0
-15 -16 0
1 5 9 13 0
-1 -5 0
-1 -9 0
-5 -9 0
-1 -13 0
-5 -13 0
-9 -13 0
2 6 10 14 0
-2 -6 0
-2 -10 0
-6 -10 0
-2 -14 0
-6 -14 0
-10 -14 0
3 7 11 15 0
-3 -7 0
-3 -11 0
-7 -11 0
-3 -15 0
-7 -15 0
-11 -15 0
4 8 12 16 0
-4 -8 0
-4 -12 0
-8 -12 0
-4 -16 0
-8 -16 0
-12 -16 0
-1 -2 17 0
-5 -6 17 0
-9 -10 17 0
-13 -14 17 0
-2 -3 18 0
-6 -7 18 0
-10 -11 18 0
-14 -15 18 0
-3 -4 19 0
-7 -8 19 0
-11 -12 19 0
-15 -16 19 0
-17 -18 0
-17 -19 0
-18 -19 0
-1 -3 20 0
-5 -7 20 0
-9 -11 20 0
-13 -15 20 0
-2 -4 21 0
-6 -8 21 0
-10 -12 21 0
-14 -16 21 0
-20 -21 0
-1 -4 22 0
-5 -8 22 0
-9 -12 22 0
-13 -16 22 0
-4 -5 23 0
-8 -9 23 0
-12 -13 23 0
-3 -5 24 0
-7 -9 24 0
-11 -13 24 0
-4 -6 25 0
-8 -10 25 0
-12 -14 25 0
-24 -25 0
-2 -5 26 0
-6 -9 26 0
-10 -13 26 0
-3 -6 27 0
-7 -10 27 0
-11 -14 27 0
-4 -7 28 0
-8 -11 28 0
-12 -15 28 0
-26 -27 0
-26 -28 0
-27 -28 0
-1 -5 29 0
-5 -9 29 0
-9 -13 29 0
-2 -6 30 0
-6 -10 30 0
-10 -14 30 0
-3 -7 31 0
-7 -11 31 0
-11 -15 31 0
-4 -8 32 0
-8 -12 32 0
-12 -16 32 0
-29 -30 0
-29 -31 0
-30 -31 0
-29 -32 0
-30 -32 0
-31 -32 0
-1 -6 33 0
-5 -10 33 0
-9 -14 33 0
-2 -7 34 0
-6 -11 34 0
-10 -15 34 0
-3 -8 35 0
-7 -12 35 0
-11 -16 35 0
-33 -34 0
-33 -35 0
-34 -35 0
-1 -7 36 0
-5 -11 36 0
-9 -15 36 0
-2 -8 37 0
-6 -12 37 0
-10 -16 37 0
-36 -37 0
-1 -8 38 0
-5 -12 38 0
-9 -16 38 0
-4 -9 39 0
-8 -13 39 0
-3 -9 40 0
-7 -13 40 0
-4 -10 41 0
-8 -14 41 0
-40 -41 0
-2 -9 42 0
-6 -13 42 0
-3 -10 43 0
-7 -14 43 0
-4 -11 44 0
-8 -15 44 0
-42 -43 0
-42 -44 0
-43 -44 0
-1 -9 45 0
-5 -13 45 0
-2 -10 46 0
-6 -14 46 0
-3 -11 47 0
-7 -15 47 0
-4 -12 48 0
-8 -16 48 0
-45 -46 0
-45 -47 0
-46 -47 0
-45 -48 0
-46 -48 0
-47 -48 0
-1 -10 49 0
-5 -14 49 0
-2 -11 50 0
-6 -15 50 0
-3 -12 51 0
-7 -16 51 0
-49 -50 0
-49 -51 0
-50 -51 0
-1 -11 52 0
-5 -15 52 0
-2 -12 53 0
-6 -16 53 0
-52 -53 0
-1 -12 54 0
-5 -16 54 0
-4 -13 55 0
-3 -13 56 0
-4 -14 57 0
-56 -57 0
-2 -13 58 0
-3 -14 59 0
-4 -15 60 0
-58 -59 0
-58 -60 0
-59 -60 0
-1 -13 61 0
-2 -14 62 0
-3 -15 63 0
-4 -16 64 0
-61 -62 0
-61 -63 0
-62 -63 0
-61 -64 0
-62 -64 0
-63 -64 0
-1 -14 65 0
-2 -15 66 0
-3 -16 67 0
-65 -66 0
-65 -67 0
-66 -67 0
-1 -15 68 0
-2 -16 69 0
-68 -69 0
-1 -16 70 0
p cnf 70 222
